Soluciones/instance10C.out
174414 5.23985
10
8 5 4 3 1 6 2 0 7 9 